RAW/CMTY/fspd-mid/CMT7Y.vrp_seed-9.out
900.1193343	95.788	182.201
