RAW/CMTY/fspd-mid/CMT7Y.vrp_seed-9.sol
Route #1: 6 33 43 41 56 23 63
Route #2: 75 4 52 46 34 67
Route #3: 7 35 53 11 66 65 38
Route #4: 36 71 60 70 20 37
Route #5: 2 28 61 69 21 74 30
Route #6: 51 16 49 24 3 44 40 17
Route #7: 27 57 15 5 47 48 29 45
Route #8: 13 54 59 14 19 8
Route #9: 68 62 22 64 42 1 73
Route #10: 26 58 10 31 39 72 12
Route #11: 9 25 55 18 50 32
Cost 900.119334